(set-logic QF_S)
(declare-fun var0 () String)
(assert (RegexIn var0 (RegexConcat (RegexStar (RegexUnion (Str2Reg "00") (Str2Reg "11"))) (RegexConcat (RegexUnion (RegexStar (Str2Reg "2")) (RegexStar (Str2Reg "3"))) (RegexConcat (RegexUnion (RegexUnion (Str2Reg "4") (Str2Reg "55")) (RegexUnion (Str2Reg "666") (Str2Reg "77"))) (RegexConcat (RegexUnion (RegexPlus (Str2Reg "8")) (RegexPlus (Str2Reg "9"))) (RegexConcat (RegexUnion (RegexStar (Str2Reg "aa")) (RegexStar (Str2Reg "bb"))) (RegexConcat (RegexUnion (RegexStar (Str2Reg "c")) (RegexStar (Str2Reg "dd"))) (RegexConcat (RegexUnion (RegexPlus (Str2Reg "eee")) (RegexPlus (Str2Reg "ff"))) (RegexConcat (RegexStar (RegexStar (Str2Reg "ggg"))) (RegexConcat (RegexPlus (RegexUnion (Str2Reg "hh") (Str2Reg "iii"))) (RegexStar (RegexUnion (Str2Reg "jj") (Str2Reg "kkk"))))))))))))))
(assert (<= 476 (Length var0)))
(check-sat)